SCIP version 5.0.0 [precision: 8 byte] [memory: block] [mode: optimized] [LP solver: NONE] [GitHash: 3bbd232]
Copyright (C) 2002-2017 Konrad-Zuse-Zentrum fuer Informationstechnik Berlin (ZIB)

External codes: 
  Readline EditLine w  GNU library for command line editing (gnu.org/s/readline)
  CppAD 20160000.1     Algorithmic Differentiation of C++ algorithms developed by B. Bell (www.coin-or.org/CppAD)
  ZLIB 1.2.5           General purpose compression library by J. Gailly and M. Adler (zlib.net)
  GMP 6.1.2            GNU Multiple Precision Arithmetic Library developed by T. Granlund (gmplib.org)

user parameter file <scip.set> not found - using default parameters

read problem <../../Split_data/output/statG/3/0_sample_statG.logreg>
============

File name	:	../../Split_data/output/statG/3/0_sample_statG.logreg
Problem name 	:	0_sample_statG
Number of data	:	800
Number of var	:	61
The given data has linear dependence
13 sets of column vector are linearly dependent:

[dim=1] time: 0.04012
[dim=2] time: 0.082407
[dim=3] time: 0.131062
[dim=4] time: 0.17024
[dim=5] time: 0.212608
[dim=6] time: 0.253968
[dim=7] time: 0.298315
[dim=8] time: 0.342999
[dim=9] time: 0.384173
[dim=10] time: 0.429334
[dim=11] time: 0.478766
[dim=12] time: 0.520156
[dim=13] time: 0.56671
[dim=14] time: 0.613064
[dim=15] time: 0.652616
[dim=16] time: 0.692231
[dim=17] time: 0.731653
[dim=18] time: 0.770548
[dim=19] time: 0.812517
[dim=20] time: 0.856123
[dim=21] time: 0.897547
[dim=22] Time of forward = 0.931438sec.
AIC: 761.724
k: 21

[dim=48] time: 0.109762
[dim=47] time: 0.189703
[dim=46] time: 0.258038
[dim=45] time: 0.341886
[dim=44] time: 0.427047
[dim=43] time: 0.487959
[dim=42] time: 0.557598
[dim=41] time: 0.609875
[dim=40] time: 0.665074
[dim=39] time: 0.706727
[dim=38] time: 0.761969
[dim=37] time: 0.821341
[dim=36] time: 0.873977
[dim=35] time: 0.925842
[dim=34] time: 0.973029
[dim=33] time: 1.01705
[dim=32] time: 1.07096
[dim=31] time: 1.10528
[dim=30] time: 1.14054
[dim=29] time: 1.17852
[dim=28] time: 1.21203
[dim=27] time: 1.24216
[dim=26] time: 1.27953
[dim=25] time: 1.31057
[dim=24] time: 1.34454
[dim=23] time: 1.38471
[dim=22] time: 1.41368
[dim=21] Time of backward = 1.44221sec.
AIC: 767.259
k: 22
